C8 O16
1.0
   3.9908489999999999    0.0000000000000000    0.0000000000000002
  -0.0000000000000004    6.8019829999999999    0.0000000000000004
   0.0000000000000000    0.0000000000000000    7.1357330000000001
C O
8 16
direct
   0.9955689999999995    0.3171280000000000    0.5824480000000000 C
   0.0044310000000005    0.8171280000000001    0.9175520000000000 C
   0.5044310000000005    0.6828719999999999    0.0824479999999999 C
   0.4955689999999995    0.1828720000000000    0.4175520000000000 C
   0.9424539999999996    0.1915930000000000    0.9153429999999990 C
   0.0575460000000004    0.6915930000000000    0.5846570000000010 C
   0.5575460000000004    0.8084070000000000    0.4153429999999991 C
   0.4424539999999997    0.3084070000000000    0.0846570000000010 C
   0.6713610000000004    0.0055540000000010    0.4172780000000000 O
   0.3286389999999996    0.5055540000000009    0.0827220000000000 O
   0.8286389999999996    0.9944459999999991    0.9172780000000000 O
   0.1713610000000005    0.4944459999999990    0.5827220000000000 O
   0.8223380000000005    0.2766940000000010    0.7475769999999990 O
   0.1776619999999995    0.7766940000000010    0.7524230000000010 O
   0.6776619999999995    0.7233059999999990    0.2475769999999990 O
   0.3223380000000005    0.2233059999999990    0.2524230000000010 O
   0.2472839999999995    0.1719680000000000    0.5592710000000000 O
   0.7527160000000005    0.6719680000000000    0.9407290000000000 O
   0.2527160000000005    0.8280320000000000    0.0592709999999999 O
   0.7472839999999995    0.3280320000000000    0.4407290000000000 O
   0.7844120000000004    0.2914040000000010    0.0636280000000000 O
   0.2155879999999996    0.7914040000000010    0.4363720000000000 O
   0.7155879999999996    0.7085959999999990    0.5636280000000000 O
   0.2844120000000006    0.2085959999999990    0.9363720000000000 O
