sea
1.0
  4.9077728600 0.0000000000 0.0000000000
  0.0000000000 8.2565164700 0.0000000000
  0.0000000000 0.0000000000 26.4316535700
  Si  O
  24  48
Direct
     0.659362520    0.668517130    0.137739320
     0.159362520    0.831482870    0.862260680
     0.340637480    0.168517130    0.362260680
     0.840637480    0.331482870    0.637739320
     0.501214510    0.293950570    0.139263360
     0.001214510    0.206049430    0.860736640
     0.498785490    0.793950570    0.360736640
     0.998785490    0.706049430    0.639263360
     0.660562690    0.810978380    0.027972570
     0.160562690    0.689021620    0.972027430
     0.339437310    0.310978380    0.472027430
     0.839437310    0.189021620    0.527972570
     0.497412870    0.184634700    0.027800630
     0.997412870    0.315365300    0.972199370
     0.502587130    0.684634700    0.472199370
     0.002587130    0.815365300    0.527800630
     0.159381430    0.789716920    0.194233960
     0.659381430    0.710283080    0.805766040
     0.840618570    0.289716920    0.305766040
     0.340618570    0.210283080    0.694233960
     0.002510170    0.164340370    0.195428690
     0.502510170    0.335659630    0.804571310
     0.997489830    0.664340370    0.304571310
     0.497489830    0.835659630    0.695428690
     0.114161380    0.981969740    0.195327180
     0.614161380    0.518030260    0.804672820
     0.885838620    0.481969740    0.304672820
     0.385838620    0.018030260    0.695327180
     0.612871670    0.476302880    0.137965760
     0.112871670    0.023697120    0.862034240
     0.387128330    0.976302880    0.362034240
     0.887128330    0.523697120    0.637965760
     0.611911110    0.002981180    0.027712850
     0.111911110    0.497018820    0.972287150
     0.388088890    0.502981180    0.472287150
     0.888088890    0.997018820    0.527712850
     0.585381490    0.739643960    0.082831170
     0.085381490    0.760356040    0.917168830
     0.414618510    0.239643960    0.417168830
     0.914618510    0.260356040    0.582831170
     0.402479800    0.237714280    0.083795640
     0.902479800    0.262285720    0.916204360
     0.597520200    0.737714280    0.416204360
     0.097520200    0.762285720    0.583795640
     0.909688500    0.214694760    0.251361940
     0.409688500    0.285305240    0.748638060
     0.090311500    0.714694760    0.248638060
     0.590311500    0.785305240    0.751361940
     0.473619550    0.753367380    0.180628300
     0.973619550    0.746632620    0.819371700
     0.526380450    0.253367380    0.319371700
     0.026380450    0.246632620    0.680628300
     0.243616580    0.284306580    0.177133620
     0.743616580    0.215693420    0.822866380
     0.756383420    0.784306580    0.322866380
     0.256383420    0.715693420    0.677133620
     0.973557150    0.706283160    0.151073350
     0.473557150    0.793716840    0.848926650
     0.026442850    0.206283160    0.348926650
     0.526442850    0.293716840    0.651073350
     0.744129940    0.175607680    0.157704900
     0.244129940    0.324392320    0.842295100
     0.255870060    0.675607680    0.342295100
     0.755870060    0.824392320    0.657704900
     0.475556320    0.724894130    0.985200550
     0.975556320    0.775105870    0.014799450
     0.524443680    0.224894130    0.514799450
     0.024443680    0.275105870    0.485200550
     0.236553900    0.194430290    0.990749540
     0.736553900    0.305569710    0.009250460
     0.763446100    0.694430290    0.509250460
     0.263446100    0.805569710    0.490749540
